language Essence 1.3

letting bot_end be [4920, 3919, 460, 1328, 4991, 3777, 1170, 11, 843, 1051, 839, 3913, 959, 3620; int(1..14)]
letting bot_start be [1367, 3528, 3295, 2542, 171, 1554, 3721, 3194, 3998, 2839, 3081, 267, 3903, 1931; int(1..14)]
letting buffer_col be 2
letting buffer_row be 2
letting corridor_size be 1
letting n_shelves_col be 15
letting n_shelves_row be 49
letting shelf_col_size be 2
letting shelf_row_size be 1
